results_rootrelaxation/bin018_050_007.srr.sol
solution status: optimal solution found
objective value:                                    0
_var1264_                           0.118941031037393 	(obj:0)
_var2330_                           0.243025424289858 	(obj:0)
_var2694_                          0.0538291914566112 	(obj:0)
_var2696_                           0.340127173079631 	(obj:0)
_var2698_                           0.143981051021931 	(obj:0)
_var2701_                           0.186049979766639 	(obj:0)
_var2705_                           0.189738967768648 	(obj:0)
_var2706_                           0.367262412512007 	(obj:0)
_var2708_                          0.0496650200452922 	(obj:0)
_var2713_                           0.087404115921298 	(obj:0)
_var2719_                          0.0314795584305113 	(obj:0)
_var2720_                           0.182844944871479 	(obj:0)
_var2721_                          0.0794005236874234 	(obj:0)
_var2723_                           0.216525674064115 	(obj:0)
_var2725_                            0.13239039694946 	(obj:0)
_var2727_                          0.0639728177375389 	(obj:0)
_var2731_                           0.416353497610219 	(obj:0)
_var2733_                           0.152447600529296 	(obj:0)
_var2734_                           0.226039261483801 	(obj:0)
_var2737_                           0.133199238101448 	(obj:0)
_var2738_                          0.0529920593600928 	(obj:0)
_var2739_                           0.291418488709408 	(obj:0)
_var2745_                          0.0116711353103796 	(obj:0)
_var2746_                          0.0875801105463194 	(obj:0)
_var2751_                           0.318313375359998 	(obj:0)
_var2753_                            0.24081217169859 	(obj:0)
_var2754_                           0.085830608789469 	(obj:0)
_var2756_                          0.0941495940533561 	(obj:0)
_var2762_                          0.0411463512350483 	(obj:0)
_var2763_                           0.090405492922213 	(obj:0)
_var2766_                          0.0252646694068081 	(obj:0)
_var2774_                           0.211354806987311 	(obj:0)
_var2776_                           0.199217902297538 	(obj:0)
_var2777_                          0.0714927764374735 	(obj:0)
_var2779_                           0.219004262168136 	(obj:0)
_var2783_                          0.0113213420608936 	(obj:0)
_var2784_                          0.0361112269360092 	(obj:0)
_var2787_                            0.10099848679801 	(obj:0)
_var2788_                           0.174825449146767 	(obj:0)
_var2790_                          0.0649550227229067 	(obj:0)
_var2791_                          0.0289358525122757 	(obj:0)
_var2793_                           0.121765964459345 	(obj:0)
_var2795_                           0.125507876457836 	(obj:0)
_var2797_                           0.249197595185593 	(obj:0)
_var2798_                           0.121116756006351 	(obj:0)
_var2801_                           0.309947576494124 	(obj:0)
_var2804_                           0.214524513888803 	(obj:0)
_var2805_                         0.00119965444619578 	(obj:0)
_var2808_                          0.0538440770982848 	(obj:0)
_var2809_                           0.294168112842566 	(obj:0)
_var2810_                           0.103334347470122 	(obj:0)
_var2812_                           0.260996407265891 	(obj:0)
_var2815_                           0.121227352280844 	(obj:0)
_var2816_                           0.098637276496169 	(obj:0)
_var2818_                           0.143580167618514 	(obj:0)
_var2820_                          0.0585013981038301 	(obj:0)
_var2823_                           0.065519306968625 	(obj:0)
_var2825_                          0.0281230667836679 	(obj:0)
_var2826_                           0.217629387747046 	(obj:0)
_var2827_                         0.00319876216168992 	(obj:0)
_var2828_                          0.0604136497626446 	(obj:0)
_var2830_                          0.0975761596421971 	(obj:0)
_var2831_                           0.127492907309101 	(obj:0)
_var2833_                          0.0416428272626092 	(obj:0)
_var2834_                            0.14760751798694 	(obj:0)
_var2836_                           0.276143891829206 	(obj:0)
_var2837_                           0.159289505081958 	(obj:0)
_var2838_                           0.021950735196556 	(obj:0)
_var2839_                          0.0283276767092368 	(obj:0)
_var2840_                           0.129441003463948 	(obj:0)
_var2841_                           0.162128766140956 	(obj:0)
_var2845_                           0.222893911269755 	(obj:0)
_var2847_                          0.0371053248163227 	(obj:0)
_var2848_                          0.0743645938569239 	(obj:0)
_var2849_                          0.0850696332107984 	(obj:0)
_var2851_                           0.279910054305848 	(obj:0)
_var2854_                          0.0473493731005504 	(obj:0)
_var2855_                           0.177394045669926 	(obj:0)
_var2857_                           0.120478648861151 	(obj:0)
_var2866_                           0.020012613543686 	(obj:0)
_var2867_                           0.129262283771619 	(obj:0)
_var2868_                           0.122838675529156 	(obj:0)
_var2872_                          0.0880707617615257 	(obj:0)
_var2873_                           0.126435393456115 	(obj:0)
_var2875_                          0.0476845811569335 	(obj:0)
_var2876_                          0.0536864525437621 	(obj:0)
_var2877_                           0.117092999314195 	(obj:0)
_var2878_                          0.0862857258078172 	(obj:0)
_var2879_                           0.241605244116194 	(obj:0)
_var2880_                           0.192528438780019 	(obj:0)
_var2882_                          0.0941240107537863 	(obj:0)
_var2885_                          0.0593660489389332 	(obj:0)
_var2888_                           0.190132698189478 	(obj:0)
_var2890_                          0.0194625281867035 	(obj:0)
_var2891_                          0.0011276963598696 	(obj:0)
_var2894_                          0.0548025496458251 	(obj:0)
_var2896_                           0.115989809704922 	(obj:0)
_var2897_                           0.270589535698156 	(obj:0)
_var2898_                           0.175508908692758 	(obj:0)
_var2899_                           0.172089122379636 	(obj:0)
_var2900_                          0.0367400661475498 	(obj:0)
_var2903_                           0.212819489925535 	(obj:0)
_var2905_                           0.130681894941915 	(obj:0)
_var2908_                           0.200735044749412 	(obj:0)
_var2909_                          0.0343825204082594 	(obj:0)
_var2912_                          0.0107859726484469 	(obj:0)
_var2913_                          0.0863837653632983 	(obj:0)
_var2916_                          0.0833250797504383 	(obj:0)
_var2917_                          0.0632360624234698 	(obj:0)
_var2918_                           0.139017469452288 	(obj:0)
_var2919_                           0.135983778764519 	(obj:0)
_var2922_                           0.221887856816472 	(obj:0)
_var2924_                          0.0877384860795648 	(obj:0)
_var2926_                          0.0609567886736129 	(obj:0)
_var2928_                           0.133883896255058 	(obj:0)
_var2929_                          0.0767708470499207 	(obj:0)
_var2932_                          0.0220578124534233 	(obj:0)
_var2935_                           0.120047608096258 	(obj:0)
_var2937_                          0.0880493356396684 	(obj:0)
_var2940_                          0.0753872926670716 	(obj:0)
_var2941_                          0.0228291558540774 	(obj:0)
_var2942_                          0.0514663049526496 	(obj:0)
_var2943_                           0.042525957567303 	(obj:0)
_var2944_                          0.0222464761758231 	(obj:0)
_var2945_                          0.0653074776460224 	(obj:0)
_var2946_                           0.129243465232442 	(obj:0)
_var2949_                           0.169521708680395 	(obj:0)
_var2953_                          0.0737268619849715 	(obj:0)
_var2954_                          0.0408572465907996 	(obj:0)
_var2955_                           0.112076036517239 	(obj:0)
_var2956_                         0.00528339915507913 	(obj:0)
_var2958_                          0.0263353686178086 	(obj:0)
_var2959_                          0.0142086539362254 	(obj:0)
_var2961_                          0.0180211813227545 	(obj:0)
_var2962_                           0.117115576549286 	(obj:0)
_var2964_                          0.0822798123083201 	(obj:0)
_var2966_                           0.169816977705139 	(obj:0)
_var2968_                          0.0412688128901631 	(obj:0)
_var2969_                          0.0550390373108364 	(obj:0)
_var2971_                          0.0161873562660537 	(obj:0)
_var2972_                          0.0674274348097562 	(obj:0)
_var2973_                         0.000823894844077371 	(obj:0)
_var2975_                           0.110971495741135 	(obj:0)
_var2976_                          0.0416053333707448 	(obj:0)
_var2980_                          0.0873415958779296 	(obj:0)
_var2982_                          0.0864049240605578 	(obj:0)
_var2983_                         0.00276216783959031 	(obj:0)
_var2985_                          0.0778330631429208 	(obj:0)
_var2991_                          0.0493824338890062 	(obj:0)
_var2994_                          0.0120593127986158 	(obj:0)
_var3001_                           0.021421087295989 	(obj:0)
_var3002_                         0.00596435135328856 	(obj:0)
