results_rootrelaxation/bin018_050_007.srr.log
SCIP version 8.0.3.5 [precision: 8 byte] [memory: block] [mode: optimized] [LP solver: Soplex 6.0.1.3] [GitHash: 438792519e]
Copyright (c) 2002-2023 Zuse Institute Berlin (ZIB)

External libraries: 
  Readline 8.1         GNU library for command line editing (gnu.org/s/readline)
  Soplex 6.0.1.3       Linear Programming Solver developed at Zuse Institute Berlin (soplex.zib.de) [GitHash: 713be0fe]
  CppAD 20180000.0     Algorithmic Differentiation of C++ algorithms developed by B. Bell (github.com/coin-or/CppAD)
  ZLIB 1.2.11          General purpose compression library by J. Gailly and M. Adler (zlib.net)
  bliss 0.77           Computing Graph Automorphism Groups by T. Junttila and P. Kaski (www.tcs.hut.fi/Software/bliss/)

user parameter file <scip.set> not found - using default parameters

srr/relaxation = TRUE

read problem <instances/bin018_050_007.srr>
============

Original problem: 
original problem has 0 variables (0 bin, 0 int, 0 impl, 0 cont) and 170 constraints

presolving:
presolving (1 rounds: 1 fast, 1 medium, 1 exhaustive):
 0 deleted vars, 0 deleted constraints, 0 added constraints, 0 tightened bounds, 0 added holes, 0 changed sides, 0 changed coefficients
 0 implications, 0 cliques
presolved problem has 0 variables (0 bin, 0 int, 0 impl, 0 cont) and 170 constraints
    170 constraints of type <linear>
Presolving Time: 0.00

 time | node  | left  |LP iter|LP it/n|mem/heur|mdpt |vars |cons |rows |cuts |sepa|confs|strbr|  dualbound   | primalbound  |  gap   | compl. 
  0.0s|     1 |     0 |     1 |     - |   922k |   0 |   1 | 170 | 170 |   0 |  0 |   0 |   0 |      --      |      --      |    Inf | unknown
  0.2s|     1 |     0 |  1455 |     - |  7205k |   0 |1627 | 170 | 170 |   0 |  0 |   0 |   0 |      --      |      --      |    Inf | unknown
r 0.9s|     1 |     0 |  6956 |     - |simplero|   0 |2681 | 170 | 170 |   0 |  0 |   0 |   0 |      --      | 3.299632e+01 |    Inf | unknown
r 0.9s|     1 |     0 |  7008 |     - |simplero|   0 |2698 | 170 | 170 |   0 |  0 |   0 |   0 |      --      | 3.234969e+01 |    Inf | unknown
r 0.9s|     1 |     0 |  7121 |     - |simplero|   0 |2715 | 170 | 170 |   0 |  0 |   0 |   0 |      --      | 3.065415e+01 |    Inf | unknown
r 1.0s|     1 |     0 |  7291 |     - |simplero|   0 |2732 | 170 | 170 |   0 |  0 |   0 |   0 |      --      | 2.737939e+01 |    Inf | unknown
r 1.0s|     1 |     0 |  7491 |     - |simplero|   0 |2749 | 170 | 170 |   0 |  0 |   0 |   0 |      --      | 2.474220e+01 |    Inf | unknown
r 1.0s|     1 |     0 |  7690 |     - |simplero|   0 |2766 | 170 | 170 |   0 |  0 |   0 |   0 |      --      | 2.254868e+01 |    Inf | unknown
r 1.1s|     1 |     0 |  7889 |     - |simplero|   0 |2783 | 170 | 170 |   0 |  0 |   0 |   0 |      --      | 1.907113e+01 |    Inf | unknown
r 1.1s|     1 |     0 |  8052 |     - |simplero|   0 |2800 | 170 | 170 |   0 |  0 |   0 |   0 |      --      | 1.681167e+01 |    Inf | unknown
r 1.1s|     1 |     0 |  8198 |     - |simplero|   0 |2817 | 170 | 170 |   0 |  0 |   0 |   0 |      --      | 1.342585e+01 |    Inf | unknown
r 1.1s|     1 |     0 |  8267 |     - |simplero|   0 |2817 | 170 | 170 |   0 |  0 |   0 |   0 |      --      | 1.297073e+01 |    Inf | unknown
r 1.1s|     1 |     0 |  8283 |     - |simplero|   0 |2817 | 170 | 170 |   0 |  0 |   0 |   0 |      --      | 1.295588e+01 |    Inf | unknown
r 1.1s|     1 |     0 |  8288 |     - |simplero|   0 |2817 | 170 | 170 |   0 |  0 |   0 |   0 |      --      | 1.295495e+01 |    Inf | unknown
r 1.1s|     1 |     0 |  8461 |     - |simplero|   0 |2834 | 170 | 170 |   0 |  0 |   0 |   0 |      --      | 1.061063e+01 |    Inf | unknown
 time | node  | left  |LP iter|LP it/n|mem/heur|mdpt |vars |cons |rows |cuts |sepa|confs|strbr|  dualbound   | primalbound  |  gap   | compl. 
r 1.2s|     1 |     0 |  8491 |     - |simplero|   0 |2834 | 170 | 170 |   0 |  0 |   0 |   0 |      --      | 1.048059e+01 |    Inf | unknown
r 1.2s|     1 |     0 |  8603 |     - |simplero|   0 |2851 | 170 | 170 |   0 |  0 |   0 |   0 |      --      | 8.764809e+00 |    Inf | unknown
r 1.2s|     1 |     0 |  8685 |     - |simplero|   0 |2851 | 170 | 170 |   0 |  0 |   0 |   0 |      --      | 7.922378e+00 |    Inf | unknown
r 1.2s|     1 |     0 |  8732 |     - |simplero|   0 |2851 | 170 | 170 |   0 |  0 |   0 |   0 |      --      | 7.732493e+00 |    Inf | unknown
r 1.2s|     1 |     0 |  8748 |     - |simplero|   0 |2851 | 170 | 170 |   0 |  0 |   0 |   0 |      --      | 7.729503e+00 |    Inf | unknown
r 1.2s|     1 |     0 |  8912 |     - |simplero|   0 |2868 | 170 | 170 |   0 |  0 |   0 |   0 |      --      | 6.103998e+00 |    Inf | unknown
r 1.2s|     1 |     0 |  8963 |     - |simplero|   0 |2868 | 170 | 170 |   0 |  0 |   0 |   0 |      --      | 5.973502e+00 |    Inf | unknown
r 1.2s|     1 |     0 |  8967 |     - |simplero|   0 |2868 | 170 | 170 |   0 |  0 |   0 |   0 |      --      | 5.970872e+00 |    Inf | unknown
r 1.2s|     1 |     0 |  8968 |     - |simplero|   0 |2868 | 170 | 170 |   0 |  0 |   0 |   0 |      --      | 5.970871e+00 |    Inf | unknown
r 1.2s|     1 |     0 |  9049 |     - |simplero|   0 |2885 | 170 | 170 |   0 |  0 |   0 |   0 |      --      | 5.110504e+00 |    Inf | unknown
r 1.3s|     1 |     0 |  9130 |     - |simplero|   0 |2885 | 170 | 170 |   0 |  0 |   0 |   0 |      --      | 4.808491e+00 |    Inf | unknown
r 1.3s|     1 |     0 |  9144 |     - |simplero|   0 |2885 | 170 | 170 |   0 |  0 |   0 |   0 |      --      | 4.798856e+00 |    Inf | unknown
r 1.3s|     1 |     0 |  9149 |     - |simplero|   0 |2885 | 170 | 170 |   0 |  0 |   0 |   0 |      --      | 4.798217e+00 |    Inf | unknown
r 1.3s|     1 |     0 |  9247 |     - |simplero|   0 |2902 | 170 | 170 |   0 |  0 |   0 |   0 |      --      | 3.975863e+00 |    Inf | unknown
r 1.3s|     1 |     0 |  9315 |     - |simplero|   0 |2902 | 170 | 170 |   0 |  0 |   0 |   0 |      --      | 3.526988e+00 |    Inf | unknown
 time | node  | left  |LP iter|LP it/n|mem/heur|mdpt |vars |cons |rows |cuts |sepa|confs|strbr|  dualbound   | primalbound  |  gap   | compl. 
r 1.3s|     1 |     0 |  9332 |     - |simplero|   0 |2902 | 170 | 170 |   0 |  0 |   0 |   0 |      --      | 3.489832e+00 |    Inf | unknown
r 1.3s|     1 |     0 |  9404 |     - |simplero|   0 |2919 | 170 | 170 |   0 |  0 |   0 |   0 |      --      | 2.776584e+00 |    Inf | unknown
r 1.3s|     1 |     0 |  9474 |     - |simplero|   0 |2919 | 170 | 170 |   0 |  0 |   0 |   0 |      --      | 2.612617e+00 |    Inf | unknown
r 1.3s|     1 |     0 |  9479 |     - |simplero|   0 |2919 | 170 | 170 |   0 |  0 |   0 |   0 |      --      | 2.611278e+00 |    Inf | unknown
r 1.3s|     1 |     0 |  9481 |     - |simplero|   0 |2919 | 170 | 170 |   0 |  0 |   0 |   0 |      --      | 2.611208e+00 |    Inf | unknown
r 1.3s|     1 |     0 |  9483 |     - |simplero|   0 |2919 | 170 | 170 |   0 |  0 |   0 |   0 |      --      | 2.611014e+00 |    Inf | unknown
r 1.3s|     1 |     0 |  9484 |     - |simplero|   0 |2919 | 170 | 170 |   0 |  0 |   0 |   0 |      --      | 2.611003e+00 |    Inf | unknown
r 1.4s|     1 |     0 |  9562 |     - |simplero|   0 |2936 | 170 | 170 |   0 |  0 |   0 |   0 |      --      | 2.023703e+00 |    Inf | unknown
  1.4s|     1 |     0 |  9617 |     - |    14M |   0 |2936 | 170 | 170 |   0 |  0 |   0 |   0 |      --      | 2.023703e+00 |    Inf | unknown
r 1.4s|     1 |     0 |  9617 |     - |simplero|   0 |2936 | 170 | 170 |   0 |  0 |   0 |   0 |      --      | 1.684799e+00 |    Inf | unknown
r 1.4s|     1 |     0 |  9647 |     - |simplero|   0 |2936 | 170 | 170 |   0 |  0 |   0 |   0 |      --      | 1.661644e+00 |    Inf | unknown
r 1.4s|     1 |     0 |  9656 |     - |simplero|   0 |2936 | 170 | 170 |   0 |  0 |   0 |   0 |      --      | 1.658191e+00 |    Inf | unknown
r 1.4s|     1 |     0 |  9746 |     - |simplero|   0 |2953 | 170 | 170 |   0 |  0 |   0 |   0 |      --      | 1.202747e+00 |    Inf | unknown
r 1.4s|     1 |     0 |  9773 |     - |simplero|   0 |2953 | 170 | 170 |   0 |  0 |   0 |   0 |      --      | 1.147741e+00 |    Inf | unknown
r 1.4s|     1 |     0 |  9778 |     - |simplero|   0 |2953 | 170 | 170 |   0 |  0 |   0 |   0 |      --      | 1.146614e+00 |    Inf | unknown
 time | node  | left  |LP iter|LP it/n|mem/heur|mdpt |vars |cons |rows |cuts |sepa|confs|strbr|  dualbound   | primalbound  |  gap   | compl. 
r 1.4s|     1 |     0 |  9871 |     - |simplero|   0 |2970 | 170 | 170 |   0 |  0 |   0 |   0 |      --      | 6.293750e-01 |    Inf | unknown
r 1.4s|     1 |     0 |  9897 |     - |simplero|   0 |2970 | 170 | 170 |   0 |  0 |   0 |   0 |      --      | 5.318992e-01 |    Inf | unknown
r 1.4s|     1 |     0 |  9898 |     - |simplero|   0 |2970 | 170 | 170 |   0 |  0 |   0 |   0 |      --      | 5.318798e-01 |    Inf | unknown
r 1.4s|     1 |     0 |  9951 |     - |simplero|   0 |2987 | 170 | 170 |   0 |  0 |   0 |   0 |      --      | 2.247980e-01 |    Inf | unknown
r 1.4s|     1 |     0 |  9983 |     - |simplero|   0 |2987 | 170 | 170 |   0 |  0 |   0 |   0 |      --      | 1.296182e-01 |    Inf | unknown
r 1.4s|     1 |     0 |  9987 |     - |simplero|   0 |2987 | 170 | 170 |   0 |  0 |   0 |   0 |      --      | 1.279617e-01 |    Inf | unknown
r 1.5s|     1 |     0 |  9998 |     - |simplero|   0 |3004 | 170 | 170 |   0 |  0 |   0 |   0 |      --      | 0.000000e+00 |    Inf | unknown
  1.5s|     1 |     0 |  9998 |     - |    15M |   0 |3004 | 170 | 170 |   0 |  0 |   0 |   0 | 0.000000e+00 | 0.000000e+00 |   0.00%| unknown
  1.5s|     1 |     0 |  9998 |     - |    15M |   0 |3004 | 170 | 170 |   0 |  0 |   0 |   0 | 0.000000e+00 | 0.000000e+00 |   0.00%| unknown

SCIP Status        : problem is solved [optimal solution found]
Solving Time (sec) : 1.46
Solving Nodes      : 1
Primal Bound       : +0.00000000000000e+00 (49 solutions)
Dual Bound         : +0.00000000000000e+00
Gap                : 0.00 %

written transformed problem to file <results_rootrelaxation/bin018_050_007.srr.lp>
written transformed problem to file <results_rootrelaxation/bin018_050_007.srr.cip>

written solution information to file <results_rootrelaxation/bin018_050_007.srr.sol>



